instances/shortest_path/discrete/shortest_path_4_18.kp
88460
85

[5.564291109265842 6.105595405519043 8.159596792563036 7.974993529077789 0.8128866229605177 8.240623338988451 8.375984032099511 5.8169082427949 6.9333459568793465 8.49633029525507]

[73 1 27 4 25 71 46 85 70 19]
